minizinc/sudoku_problems2/sudoku_p26.dzn
%
% sudoku_p26.dzn
% See http://www.hakank.org/minizinc/sudoku_gcc.mzn
% 
% This problem is problem 26 from
% Gecode's sudoku.cpp
% http://www.gecode.org/gecode-doc-latest/sudoku_8cpp-source.html
% 
x = array2d(1..n, 1..n, [   
% 26
  _, 12, 23, 25, 17, 20,  _,  5,  3,  _, 24,  9, 15,  _,  _, 13,  _,  7,  8,  _,  _, 19,  _,  _,  _,
 19,  _,  _,  _,  _,  _, 15,  _, 13, 11,  _,  _,  _,  7,  _, 16,  _,  _, 25, 10, 14,  _,  _,  _, 21,
  _,  6,  _,  _,  _,  _,  _,  _,  _,  _,  _,  5,  _,  4, 10,  _,  _,  _,  _,  _,  _, 18,  _,  _,  _,
 10,  _,  _, 21,  _,  6,  _, 14,  _,  1, 19, 16,  _,  _,  _,  _,  5,  _, 17,  _,  2,  _,  _,  _,  9,
  _,  _, 16,  4,  _,  _, 25,  _,  _,  _, 14,  2, 23,  _, 22,  _,  _,  _, 12,  _,  _, 15, 11,  _,  1,
  _,  _, 25, 20, 19,  _,  _,  _, 16,  4,  1, 24,  _,  _, 12,  _, 23,  _,  _, 17,  _,  _,  _,  _,  _,
  _, 22,  _,  _, 18,  5, 21,  9,  7, 19,  _,  3, 17,  _,  _,  _, 14,  2,  _,  8,  _,  _,  _, 13,  _,
  1,  _,  4,  _,  _, 24, 23,  _,  8,  3, 16,  _, 25,  _, 13,  5,  9,  _,  _, 12,  _, 11, 17,  _,  _,
  _,  _,  2,  _,  9,  _,  _,  _,  _,  _,  _,  _,  4,  _, 15,  _,  3,  _,  6,  _,  _, 24,  _,  7,  _,
  3, 15,  _,  7,  _, 22, 14, 12,  _,  _,  5,  _,  _,  _,  2,  _,  _,  4, 20,  _, 21, 23,  8,  _,  _,
  _,  _,  _, 18,  _,  _,  _,  _,  _,  _,  _,  _, 22, 15,  7,  _,  6, 10, 24, 16,  _,  _, 21, 14,  _,
 12,  1,  _,  3,  _,  _, 19, 16,  _,  _, 13,  _,  9,  _,  _,  _,  4,  _,  _, 23,  _,  _,  _,  6,  8,
  _,  _,  _, 22,  7, 21,  9,  _,  _, 23, 17, 10,  _,  _,  _, 15, 19,  _, 18,  _,  _,  3,  _, 12,  _,
  _, 10,  _,  _,  _, 25,  _,  _,  _,  5,  _,  _,  _, 14,  3,  _,  8, 22,  _,  _, 20,  4, 24, 15, 16,
  _,  _,  _,  _,  _, 12,  _,  6, 20, 18, 25,  _,  _,  _,  8,  _,  _,  3,  _, 13, 19,  _,  _,  _,  _,
  _,  2,  _, 19,  _,  _,  _,  3, 12,  _,  _,  7,  _, 13,  _,  9, 10,  _, 14, 15,  6, 21,  _,  _,  _,
  4,  _,  _,  _,  3,  _,  6, 23,  _,  _,  _,  _,  _, 21,  9,  _, 17,  _,  _, 25,  8,  _,  _,  _,  2,
  _,  9,  _, 12,  _,  4, 17,  _,  _,  _,  _,  _,  _,  _, 25,  _,  _,  _,  _,  1,  _,  _, 15, 19,  3,
  _, 21, 13,  _, 20,  8,  7,  _,  1,  _, 11, 22,  5, 10, 19, 23,  _,  _,  _,  _,  4, 17,  _, 16,  _,
  _, 11,  _,  _, 22, 10, 18,  _,  _,  _,  _,  _,  _,  _,  _,  4,  7, 24,  _, 21, 13,  _,  _,  _,  _,
  _, 16,  _,  _,  _,  _,  3,  _,  _,  _,  _, 15,  _,  _,  1,  _,  _,  9,  _,  _, 22,  _,  _, 20,  6,
 25,  7,  _, 10,  _,  _, 11,  8,  _,  _,  _,  _,  _,  _,  _,  2,  _,  _,  _,  _, 18,  _,  3,  _,  _,
 22,  _,  _, 24,  _,  _,  _,  _,  9, 20,  2,  _,  _,  6,  _,  _,  1,  _, 23,  _, 15, 14,  _, 21,  _,
  _,  _,  _,  _, 14,  _,  _,  _, 10,  _,  _, 23,  _, 19,  _, 18, 16,  8,  _,  _,  _, 12,  _,  9,  _,
  6, 20, 21,  _,  4,  _,  _,  _, 15, 12, 18,  _, 10,  _,  _,  _,  _,  _,  5, 19,  _,  2, 13,  _, 23
]);

n = 25;


